language ESSENCE' 1.0
letting values be [[6, 3, 0, 0, 1, 8, 0, 4, 0], [0, 4, 0, 3, 0, 9, 0, 8, 7], [0, 0, 8, 2, 4, 0, 0, 3, 6], [3, 5, 0, 4, 2, 6, 0, 0, 0], [2, 0, 4, 0, 9, 7, 6, 5, 0], [0, 0, 0, 5, 0, 3, 4, 1, 0], [5, 0, 9, 0, 0, 0, 0, 0, 0], [0, 0, 3, 0, 7, 1, 0, 0, 0], [0, 7, 0, 0, 5, 0, 0, 0, 0]]